decision_x1=[0,4];
decision_x2=[0,4];
decision_x3=[0,4];
decision_x4=[0,4];
decision_x5=[0,4];
decision_x6=[0,4];
decision_x7=[0,4];
decision_x8=[0,4];
decision_x9=[0,4];
decision_x10=[0,4];
random_y1=[0,4];
random_y2=[0,4];
constraint_x4_x1=[
0,1,2.7|
0,2,3.2|
0,3,8.2|
0,4,0.74|
1,0,7.1|
1,2,8.3|
1,3,8.5|
1,4,0.47|
2,0,6.8|
2,1,8|
2,3,9.3|
2,4,6.8|
3,0,2.7|
3,1,5|
3,2,2.1|
3,4,0.98|
4,0,1.8|
4,1,0.31|
4,2,0.54|
4,3,10|
];
constraint_x4_x2=[
0,1,8.1|
0,2,4.1|
0,3,5.2|
0,4,2.1|
1,0,4.8|
1,2,3.3|
1,3,2.7|
1,4,8.2|
2,0,5.1|
2,1,2.6|
2,3,1.7|
2,4,3.9|
3,0,4.1|
3,1,8.7|
3,2,9.8|
3,4,1.5|
4,0,3.8|
4,1,9.1|
4,2,1.1|
4,3,9|
];
constraint_x5_x1=[
0,1,1.1|
0,2,1.7|
0,3,2.8|
0,4,8.6|
1,0,8|
1,2,9.6|
1,3,4|
1,4,2.8|
2,0,7.6|
2,1,6.1|
2,3,6.5|
2,4,3.9|
3,0,6.1|
3,1,1.4|
3,2,4.2|
3,4,6.5|
4,0,7.6|
4,1,0.43|
4,2,8.4|
4,3,4.3|
];
constraint_x5_x2=[
0,1,0.27|
0,2,0.8|
0,3,6.6|
0,4,4.8|
1,0,1.8|
1,2,1.2|
1,3,4.3|
1,4,3.7|
2,0,6.9|
2,1,5.1|
2,3,5.1|
2,4,2.1|
3,0,6.5|
3,1,6.5|
3,2,8|
3,4,1.4|
4,0,1.6|
4,1,5.8|
4,2,9.8|
4,3,8.6|
];
constraint_x5_x3=[
0,1,9.3|
0,2,1.6|
0,3,2.2|
0,4,8.5|
1,0,2.5|
1,2,6.7|
1,3,0.49|
1,4,4.7|
2,0,0.41|
2,1,1.3|
2,3,3|
2,4,4.7|
3,0,5.6|
3,1,9|
3,2,7.7|
3,4,0.8|
4,0,0.88|
4,1,7.4|
4,2,7|
4,3,9.2|
];
constraint_x5_x4=[
0,1,6.2|
0,2,6.1|
0,3,8.2|
0,4,7|
1,0,2.2|
1,2,5.8|
1,3,5.8|
1,4,5.9|
2,0,4.4|
2,1,1.6|
2,3,8.1|
2,4,5.1|
3,0,3.6|
3,1,0.56|
3,2,2.7|
3,4,0.12|
4,0,9.7|
4,1,6.4|
4,2,4.1|
4,3,0.8|
];
constraint_x6_x1=[
0,1,7.9|
0,2,7.2|
0,3,0.91|
0,4,4.3|
1,0,5.4|
1,2,9.5|
1,3,4.8|
1,4,3.3|
2,0,8.9|
2,1,0.083|
2,3,0.096|
2,4,9.5|
3,0,9.9|
3,1,4.8|
3,2,5.3|
3,4,4.4|
4,0,7.7|
4,1,2.5|
4,2,8.7|
4,3,1.3|
];
constraint_x6_x2=[
0,1,7.3|
0,2,8.7|
0,3,7.9|
0,4,6.1|
1,0,1.3|
1,2,1.6|
1,3,5.3|
1,4,1.9|
2,0,3.2|
2,1,2.9|
2,3,5|
2,4,5.6|
3,0,6.4|
3,1,4.2|
3,2,8|
3,4,7.2|
4,0,6.2|
4,1,8.4|
4,2,2.7|
4,3,7.5|
];
constraint_x6_x5=[
0,1,3.1|
0,2,8.6|
0,3,6|
0,4,5.5|
1,0,1.9|
1,2,9|
1,3,8|
1,4,1.2|
2,0,8.5|
2,1,0.15|
2,3,3.4|
2,4,8.1|
3,0,8.7|
3,1,9.3|
3,2,3.5|
3,4,1.8|
4,0,7.3|
4,1,5|
4,2,9.4|
4,3,7.9|
];
constraint_x7_x4=[
0,1,3.2|
0,2,6.3|
0,3,7.9|
0,4,2.4|
1,0,4.9|
1,2,2.2|
1,3,1.4|
1,4,2.4|
2,0,9|
2,1,3.5|
2,3,0.099|
2,4,3.3|
3,0,1.5|
3,1,3.5|
3,2,6.7|
3,4,5.9|
4,0,9.6|
4,1,7.6|
4,2,2|
4,3,2.7|
];
constraint_x7_x5=[
0,1,4.6|
0,2,0.029|
0,3,0.0025|
0,4,0.17|
1,0,9.2|
1,2,8.2|
1,3,5.1|
1,4,6|
2,0,9.3|
2,1,7.7|
2,3,7.4|
2,4,3.3|
3,0,4.5|
3,1,1.6|
3,2,7.9|
3,4,4.2|
4,0,7.6|
4,1,2.7|
4,2,2.5|
4,3,1.1|
];
constraint_x7_x6=[
0,1,7|
0,2,6.1|
0,3,9.4|
0,4,8.2|
1,0,6|
1,2,4.1|
1,3,0.62|
1,4,4.2|
2,0,5.4|
2,1,3.4|
2,3,3.3|
2,4,8.1|
3,0,0.73|
3,1,6|
3,2,3.2|
3,4,5.3|
4,0,9.3|
4,1,7.3|
4,2,10|
4,3,2.1|
];
constraint_x8_x1=[
0,1,2.1|
0,2,1|
0,3,2.3|
0,4,5.6|
1,0,7.8|
1,2,4.4|
1,3,9.2|
1,4,6.7|
2,0,1.1|
2,1,8|
2,3,8.6|
2,4,0.66|
3,0,9.3|
3,1,4|
3,2,3|
3,4,1.2|
4,0,0.69|
4,1,2.5|
4,2,0.75|
4,3,1.4|
];
constraint_x8_x4=[
0,1,8|
0,2,7.8|
0,3,1.2|
0,4,1.7|
1,0,9.2|
1,2,2.7|
1,3,3.4|
1,4,6.5|
2,0,8.9|
2,1,6.5|
2,3,7.8|
2,4,7.5|
3,0,5.9|
3,1,7.8|
3,2,6.4|
3,4,4.6|
4,0,8|
4,1,0.31|
4,2,1|
4,3,2.6|
];
constraint_x8_x7=[
0,1,2.9|
0,2,3.4|
0,3,6|
0,4,6.3|
1,0,8.3|
1,2,8.6|
1,3,2.2|
1,4,6|
2,0,8.9|
2,1,0.48|
2,3,4.5|
2,4,3.9|
3,0,7.2|
3,1,6|
3,2,0.56|
3,4,0.11|
4,0,7.9|
4,1,0.71|
4,2,1.6|
4,3,4|
];
constraint_x9_x3=[
0,1,5.8|
0,2,6.6|
0,3,8.7|
0,4,4.2|
1,0,5.4|
1,2,7.6|
1,3,9.2|
1,4,0.0066|
2,0,8.3|
2,1,8.1|
2,3,5.6|
2,4,6.2|
3,0,5.8|
3,1,0.57|
3,2,2.8|
3,4,5.8|
4,0,5.7|
4,1,5.3|
4,2,3.7|
4,3,0.4|
];
constraint_x9_x5=[
0,1,2|
0,2,8.4|
0,3,2.6|
0,4,9.6|
1,0,9.3|
1,2,9.1|
1,3,3.9|
1,4,0.0012|
2,0,3.2|
2,1,3.8|
2,3,7.3|
2,4,5|
3,0,2.1|
3,1,9.9|
3,2,4.3|
3,4,4.5|
4,0,0.52|
4,1,2.8|
4,2,5.4|
4,3,0.33|
];
constraint_x10_x1=[
0,1,7.1|
0,2,5.8|
0,3,0.54|
0,4,0.57|
1,0,4.4|
1,2,4.9|
1,3,7.3|
1,4,9.1|
2,0,9.1|
2,1,1.3|
2,3,9.1|
2,4,8.4|
3,0,1.6|
3,1,4.7|
3,2,7|
3,4,4.5|
4,0,9.5|
4,1,4.7|
4,2,2|
4,3,3|
];
constraint_x10_x2=[
0,1,5.7|
0,2,8.7|
0,3,3.6|
0,4,3.8|
1,0,8.1|
1,2,7.6|
1,3,8.8|
1,4,9.1|
2,0,0.49|
2,1,4.1|
2,3,5.3|
2,4,6.3|
3,0,0.39|
3,1,9|
3,2,8.9|
3,4,3.4|
4,0,1.6|
4,1,4.2|
4,2,2.9|
4,3,0.034|
];
constraint_x10_x4=[
0,1,9.6|
0,2,2.8|
0,3,8.7|
0,4,7.8|
1,0,10|
1,2,3|
1,3,5.6|
1,4,4.8|
2,0,4.4|
2,1,9|
2,3,7.5|
2,4,5.6|
3,0,7|
3,1,1|
3,2,3|
3,4,9.3|
4,0,6.9|
4,1,1.9|
4,2,4.6|
4,3,7.4|
];
constraint_x10_x5=[
0,1,2.1|
0,2,5.1|
0,3,6.9|
0,4,5.3|
1,0,0.86|
1,2,1.5|
1,3,5.8|
1,4,9.6|
2,0,7.9|
2,1,5.8|
2,3,4.5|
2,4,8.2|
3,0,5.5|
3,1,6.6|
3,2,2.9|
3,4,8|
4,0,1.7|
4,1,8.9|
4,2,0.13|
4,3,1.2|
];
constraint_x10_x7=[
0,1,4.6|
0,2,6.3|
0,3,2.5|
0,4,8.9|
1,0,9.2|
1,2,4.1|
1,3,0.79|
1,4,4.4|
2,0,2.2|
2,1,4.9|
2,3,4|
2,4,3.4|
3,0,7.9|
3,1,1.8|
3,2,9.5|
3,4,5.9|
4,0,5.3|
4,1,7.6|
4,2,5.7|
4,3,6.6|
];
constraint_x10_x9=[
0,1,6.4|
0,2,7|
0,3,1.6|
0,4,3.9|
1,0,7.5|
1,2,3|
1,3,0.49|
1,4,5.2|
2,0,5.6|
2,1,4.7|
2,3,8.1|
2,4,3.4|
3,0,2.4|
3,1,0.43|
3,2,3|
3,4,9.7|
4,0,2.7|
4,1,5.7|
4,2,4.6|
4,3,2|
];
constraint_x1_y1=[
0,0,1.6|
0,1,8.9|
0,2,3.5|
0,3,4.9|
0,4,1.8|
1,0,1.2|
1,1,9.4|
1,2,5.4|
1,3,3.2|
1,4,3.4|
2,0,9.9|
2,1,3.5|
2,2,2.1|
2,3,9.1|
2,4,9.1|
3,0,7|
3,1,1.3|
3,2,8|
3,3,5.6|
3,4,0.63|
4,0,1|
4,1,8.7|
4,2,7.9|
4,3,9.7|
4,4,2.3|
];
constraint_x2_y2=[
0,0,3.6|
0,1,6|
0,2,1.1|
0,3,4.3|
0,4,8.7|
1,0,1.7|
1,1,8.4|
1,2,8.5|
1,3,8.7|
1,4,9.7|
2,0,2.9|
2,1,1.5|
2,2,6.5|
2,3,8.7|
2,4,9.9|
3,0,7.5|
3,1,10|
3,2,3.5|
3,3,0.2|
3,4,4.1|
4,0,7|
4,1,9.4|
4,2,3.5|
4,3,5.4|
4,4,9.5|
];
initial_distribution_y1=[0.24,0.03,0.37,0.27,0.093];
initial_distribution_y2=[0.2,0.12,0.31,0.36,0.01];
transition_y1=[
0.3,0.16,0.28,0.22,0.031|
0.24,0.11,0.0073,0.33,0.31|
0.035,0.31,0.27,0.11,0.28|
0.063,0.046,0.5,0.24,0.15|
0.21,0.34,0.19,0.23,0.027|
];
transition_y2=[
0.074,0.28,0.34,0.076,0.23|
0.22,0.06,0.24,0.17,0.3|
0.28,0.24,0.21,0.0066,0.26|
0.22,0.31,0.2,0.035,0.23|
0.11,0.21,0.31,0.33,0.032|
];
